(declare-fun b36 () (_ FloatingPoint 11 53))
(declare-fun b19 () (_ FloatingPoint 11 53))
(declare-fun b33 () (_ FloatingPoint 11 53))
(declare-fun b24 () (_ FloatingPoint 11 53))
(declare-fun b29 () (_ FloatingPoint 11 53))
(declare-fun b10 () (_ FloatingPoint 11 53))
(declare-fun b16 () (_ FloatingPoint 11 53))
(declare-fun b12 () (_ FloatingPoint 11 53))
(declare-fun b26 () (_ FloatingPoint 11 53))
(assert (let ((.def_28 (fp.leq b36 b24)))
(let ((.def_25 (fp.leq b24 b33)))
(let ((.def_21 (fp.leq b29 b10)))
(let ((.def_18 (fp.leq b10 b26)))
(let ((.def_15 (fp.leq b10 b12)))
(let ((.def_11 (fp.add RNE b10 b16)))
(let ((.def_13 (fp.lt b19 .def_11)))
(let ((.def_16 (and .def_13 .def_15)))
(let ((.def_19 (and .def_16 .def_18)))
(let ((.def_22 (and .def_19 .def_21)))
(let ((.def_26 (and .def_22 .def_25)))
(let ((.def_29 (and .def_26 .def_28)))
.def_29)))))))))))))
(check-sat)
